words_hard_train/5779.qaiger
aag 230 24 0 1 206
2
4
8
16
24
44
52
78
94
124
148
156
178
212
220
240
276
284
304
340
348
368
408
424
461
6 2 4
10 6 9
12 7 8
14 11 13
18 15 16
20 14 17
22 19 21
26 24 2
28 22 27
30 25 3
32 31 23
34 29 33
36 27 19
38 37 21
40 3 9
42 41 4
46 43 45
48 42 44
50 47 49
54 51 53
56 50 52
58 55 57
60 39 59
62 38 58
64 61 63
66 35 64
68 34 65
70 67 69
72 30 22
74 73 33
76 31 27
80 79 25
82 78 24
84 81 83
86 76 84
88 24 16
90 25 17
92 89 91
96 93 95
98 92 94
100 97 99
102 83 101
104 82 100
106 103 105
108 87 107
110 75 109
112 86 106
114 111 113
116 105 99
118 91 52
120 90 53
122 119 121
126 123 125
128 122 124
130 127 129
132 116 131
134 117 130
136 133 135
138 115 136
140 71 139
142 114 137
144 141 143
146 135 129
150 121 148
152 120 149
154 151 153
158 155 157
160 154 156
162 159 161
164 146 163
166 147 162
168 165 167
170 144 168
172 63 57
174 40 45
176 175 4
180 177 178
182 176 179
184 181 183
186 184 149
188 185 148
190 187 189
192 172 191
194 173 190
196 193 195
198 69 196
200 68 197
202 199 201
204 171 203
206 145 169
208 205 207
210 167 161
214 153 212
216 152 213
218 215 217
222 219 221
224 218 220
226 223 225
228 210 227
230 211 226
232 229 231
234 195 189
236 174 179
238 237 4
242 239 241
244 238 240
246 243 245
248 247 213
250 246 212
252 249 251
254 234 253
256 235 252
258 255 257
260 201 258
262 200 259
264 261 263
266 232 264
268 209 267
270 233 265
272 269 271
274 231 225
278 217 276
280 216 277
282 279 281
286 283 285
288 282 284
290 287 289
292 274 291
294 275 290
296 293 295
298 257 251
300 236 241
302 301 4
306 303 304
308 302 305
310 307 309
312 310 277
314 311 276
316 313 315
318 298 317
320 299 316
322 319 321
324 263 322
326 262 323
328 325 327
330 297 329
332 272 331
334 296 328
336 333 335
338 295 289
342 281 340
344 280 341
346 343 345
350 347 349
352 346 348
354 351 353
356 338 355
358 339 354
360 357 359
362 321 315
364 300 305
366 365 4
370 367 369
372 366 368
374 371 373
376 375 341
378 374 340
380 377 379
382 362 381
384 363 380
386 383 385
388 327 386
390 326 387
392 389 391
394 361 393
396 337 395
398 360 392
400 397 399
402 401 390
404 369 4
406 404 364
410 406 409
412 407 408
414 411 413
416 385 379
418 414 416
420 415 417
422 419 421
426 424 408
428 425 409
430 427 429
432 430 345
434 431 344
436 433 435
438 359 353
440 437 439
442 436 438
444 441 443
446 422 444
448 402 446
450 403 447
452 423 445
454 400 391
456 453 455
458 450 457
460 449 459
i0 1 x1[0]
i1 1 x1[7]
i2 1 x1[1]
i3 2 y2[1]
i4 2 y2[0]
i5 1 x1[2]
i6 2 y2[2]
i7 2 y1[0]
i8 2 y1[1]
i9 2 y1[2]
i10 2 y2[3]
i11 2 y1[3]
i12 1 x1[3]
i13 2 y2[4]
i14 2 y1[4]
i15 1 x1[4]
i16 2 y2[5]
i17 2 y1[5]
i18 1 x1[5]
i19 2 y2[6]
i20 2 y1[6]
i21 1 x1[6]
i22 2 y2[7]
i23 2 y1[7]
o0 bv[0]
c
simplified
  >
    add
      2 y2
      abs
        1 x1
    subtract
      2 y1
      2 y2
