words_hard_train/5779.qaiger.qdimacs
p cnf 230 619
a 1 2 4 22 120 89 152 184 0
e 3 5 6 7 8 9 10 11 12 13 14 15 16 17 18 19 20 21 23 24 25 26 27 28 29 30 31 32 33 34 35 36 37 38 39 40 41 42 43 44 45 46 47 48 49 50 51 52 53 54 55 56 57 58 59 60 61 62 63 64 65 66 67 68 69 70 71 72 73 74 75 76 77 78 79 80 81 82 83 84 85 86 87 88 90 91 92 93 94 95 96 97 98 99 100 101 102 103 104 105 106 107 108 109 110 111 112 113 114 115 116 117 118 119 121 122 123 124 125 126 127 128 129 130 131 132 133 134 135 136 137 138 139 140 141 142 143 144 145 146 147 148 149 150 151 153 154 155 156 157 158 159 160 161 162 163 164 165 166 167 168 169 170 171 172 173 174 175 176 177 178 179 180 181 182 183 185 186 187 188 189 190 191 192 193 194 195 196 197 198 199 200 201 202 203 204 205 206 207 208 209 210 211 212 213 214 215 216 217 218 219 220 221 222 223 224 225 226 227 228 229 230 0
-1 -2 3 0
1 -3 0
2 -3 0
-3 4 5 0
3 -5 0
-4 -5 0
3 -4 6 0
-3 -6 0
4 -6 0
5 6 7 0
-5 -7 0
-6 -7 0
7 -8 9 0
-7 -9 0
8 -9 0
-7 8 10 0
7 -10 0
-8 -10 0
9 10 11 0
-9 -11 0
-10 -11 0
-12 -1 13 0
12 -13 0
1 -13 0
-11 13 14 0
11 -14 0
-13 -14 0
12 1 15 0
-12 -15 0
-1 -15 0
15 11 16 0
-15 -16 0
-11 -16 0
14 16 17 0
-14 -17 0
-16 -17 0
13 9 18 0
-13 -18 0
-9 -18 0
18 10 19 0
-18 -19 0
-10 -19 0
1 4 20 0
-1 -20 0
-4 -20 0
20 -2 21 0
-20 -21 0
2 -21 0
21 22 23 0
-21 -23 0
-22 -23 0
-21 -22 24 0
21 -24 0
22 -24 0
23 24 25 0
-23 -25 0
-24 -25 0
25 26 27 0
-25 -27 0
-26 -27 0
-25 -26 28 0
25 -28 0
26 -28 0
27 28 29 0
-27 -29 0
-28 -29 0
19 29 30 0
-19 -30 0
-29 -30 0
-19 -29 31 0
19 -31 0
29 -31 0
30 31 32 0
-30 -32 0
-31 -32 0
17 -32 33 0
-17 -33 0
32 -33 0
-17 32 34 0
17 -34 0
-32 -34 0
33 34 35 0
-33 -35 0
-34 -35 0
-15 -11 36 0
15 -36 0
11 -36 0
36 16 37 0
-36 -37 0
-16 -37 0
15 13 38 0
-15 -38 0
-13 -38 0
39 12 40 0
-39 -40 0
-12 -40 0
-39 -12 41 0
39 -41 0
12 -41 0
40 41 42 0
-40 -42 0
-41 -42 0
-38 -42 43 0
38 -43 0
42 -43 0
-12 -8 44 0
12 -44 0
8 -44 0
12 8 45 0
-12 -45 0
-8 -45 0
44 45 46 0
-44 -46 0
-45 -46 0
46 47 48 0
-46 -48 0
-47 -48 0
-46 -47 49 0
46 -49 0
47 -49 0
48 49 50 0
-48 -50 0
-49 -50 0
41 50 51 0
-41 -51 0
-50 -51 0
-41 -50 52 0
41 -52 0
50 -52 0
51 52 53 0
-51 -53 0
-52 -53 0
43 53 54 0
-43 -54 0
-53 -54 0
37 54 55 0
-37 -55 0
-54 -55 0
-43 -53 56 0
43 -56 0
53 -56 0
55 56 57 0
-55 -57 0
-56 -57 0
52 49 58 0
-52 -58 0
-49 -58 0
45 -26 59 0
-45 -59 0
26 -59 0
-45 26 60 0
45 -60 0
-26 -60 0
59 60 61 0
-59 -61 0
-60 -61 0
61 62 63 0
-61 -63 0
-62 -63 0
-61 -62 64 0
61 -64 0
62 -64 0
63 64 65 0
-63 -65 0
-64 -65 0
-58 65 66 0
58 -66 0
-65 -66 0
58 -65 67 0
-58 -67 0
65 -67 0
66 67 68 0
-66 -68 0
-67 -68 0
57 -68 69 0
-57 -69 0
68 -69 0
35 69 70 0
-35 -70 0
-69 -70 0
-57 68 71 0
57 -71 0
-68 -71 0
70 71 72 0
-70 -72 0
-71 -72 0
67 64 73 0
-67 -73 0
-64 -73 0
60 -74 75 0
-60 -75 0
74 -75 0
-60 74 76 0
60 -76 0
-74 -76 0
75 76 77 0
-75 -77 0
-76 -77 0
77 78 79 0
-77 -79 0
-78 -79 0
-77 -78 80 0
77 -80 0
78 -80 0
79 80 81 0
-79 -81 0
-80 -81 0
-73 81 82 0
73 -82 0
-81 -82 0
73 -81 83 0
-73 -83 0
81 -83 0
82 83 84 0
-82 -84 0
-83 -84 0
-72 -84 85 0
72 -85 0
84 -85 0
31 28 86 0
-31 -86 0
-28 -86 0
-20 22 87 0
20 -87 0
-22 -87 0
87 -2 88 0
-87 -88 0
2 -88 0
88 -89 90 0
-88 -90 0
89 -90 0
-88 89 91 0
88 -91 0
-89 -91 0
90 91 92 0
-90 -92 0
-91 -92 0
-92 74 93 0
92 -93 0
-74 -93 0
92 -74 94 0
-92 -94 0
74 -94 0
93 94 95 0
-93 -95 0
-94 -95 0
-86 95 96 0
86 -96 0
-95 -96 0
86 -95 97 0
-86 -97 0
95 -97 0
96 97 98 0
-96 -98 0
-97 -98 0
34 -98 99 0
-34 -99 0
98 -99 0
-34 98 100 0
34 -100 0
-98 -100 0
99 100 101 0
-99 -101 0
-100 -101 0
85 101 102 0
-85 -102 0
-101 -102 0
72 84 103 0
-72 -103 0
-84 -103 0
102 103 104 0
-102 -104 0
-103 -104 0
83 80 105 0
-83 -105 0
-80 -105 0
76 -106 107 0
-76 -107 0
106 -107 0
-76 106 108 0
76 -108 0
-106 -108 0
107 108 109 0
-107 -109 0
-108 -109 0
109 110 111 0
-109 -111 0
-110 -111 0
-109 -110 112 0
109 -112 0
110 -112 0
111 112 113 0
-111 -113 0
-112 -113 0
-105 113 114 0
105 -114 0
-113 -114 0
105 -113 115 0
-105 -115 0
113 -115 0
114 115 116 0
-114 -116 0
-115 -116 0
97 94 117 0
-97 -117 0
-94 -117 0
-87 89 118 0
87 -118 0
-89 -118 0
118 -2 119 0
-118 -119 0
2 -119 0
119 120 121 0
-119 -121 0
-120 -121 0
-119 -120 122 0
119 -122 0
120 -122 0
121 122 123 0
-121 -123 0
-122 -123 0
123 106 124 0
-123 -124 0
-106 -124 0
-123 -106 125 0
123 -125 0
106 -125 0
124 125 126 0
-124 -126 0
-125 -126 0
-117 126 127 0
117 -127 0
-126 -127 0
117 -126 128 0
-117 -128 0
126 -128 0
127 128 129 0
-127 -129 0
-128 -129 0
100 -129 130 0
-100 -130 0
129 -130 0
-100 129 131 0
100 -131 0
-129 -131 0
130 131 132 0
-130 -132 0
-131 -132 0
-116 -132 133 0
116 -133 0
132 -133 0
104 133 134 0
-104 -134 0
-133 -134 0
116 132 135 0
-116 -135 0
-132 -135 0
134 135 136 0
-134 -136 0
-135 -136 0
115 112 137 0
-115 -137 0
-112 -137 0
108 -138 139 0
-108 -139 0
138 -139 0
-108 138 140 0
108 -140 0
-138 -140 0
139 140 141 0
-139 -141 0
-140 -141 0
141 142 143 0
-141 -143 0
-142 -143 0
-141 -142 144 0
141 -144 0
142 -144 0
143 144 145 0
-143 -145 0
-144 -145 0
-137 145 146 0
137 -146 0
-145 -146 0
137 -145 147 0
-137 -147 0
145 -147 0
146 147 148 0
-146 -148 0
-147 -148 0
128 125 149 0
-128 -149 0
-125 -149 0
-118 120 150 0
118 -150 0
-120 -150 0
150 -2 151 0
-150 -151 0
2 -151 0
151 -152 153 0
-151 -153 0
152 -153 0
-151 152 154 0
151 -154 0
-152 -154 0
153 154 155 0
-153 -155 0
-154 -155 0
-155 138 156 0
155 -156 0
-138 -156 0
155 -138 157 0
-155 -157 0
138 -157 0
156 157 158 0
-156 -158 0
-157 -158 0
-149 158 159 0
149 -159 0
-158 -159 0
149 -158 160 0
-149 -160 0
158 -160 0
159 160 161 0
-159 -161 0
-160 -161 0
131 -161 162 0
-131 -162 0
161 -162 0
-131 161 163 0
131 -163 0
-161 -163 0
162 163 164 0
-162 -164 0
-163 -164 0
148 164 165 0
-148 -165 0
-164 -165 0
-136 165 166 0
136 -166 0
-165 -166 0
-148 -164 167 0
148 -167 0
164 -167 0
166 167 168 0
-166 -168 0
-167 -168 0
147 144 169 0
-147 -169 0
-144 -169 0
140 -170 171 0
-140 -171 0
170 -171 0
-140 170 172 0
140 -172 0
-170 -172 0
171 172 173 0
-171 -173 0
-172 -173 0
173 174 175 0
-173 -175 0
-174 -175 0
-173 -174 176 0
173 -176 0
174 -176 0
175 176 177 0
-175 -177 0
-176 -177 0
-169 177 178 0
169 -178 0
-177 -178 0
169 -177 179 0
-169 -179 0
177 -179 0
178 179 180 0
-178 -180 0
-179 -180 0
160 157 181 0
-160 -181 0
-157 -181 0
-150 152 182 0
150 -182 0
-152 -182 0
182 -2 183 0
-182 -183 0
2 -183 0
183 184 185 0
-183 -185 0
-184 -185 0
-183 -184 186 0
183 -186 0
184 -186 0
185 186 187 0
-185 -187 0
-186 -187 0
187 170 188 0
-187 -188 0
-170 -188 0
-187 -170 189 0
187 -189 0
170 -189 0
188 189 190 0
-188 -190 0
-189 -190 0
-181 190 191 0
181 -191 0
-190 -191 0
181 -190 192 0
-181 -192 0
190 -192 0
191 192 193 0
-191 -193 0
-192 -193 0
163 -193 194 0
-163 -194 0
193 -194 0
-163 193 195 0
163 -195 0
-193 -195 0
194 195 196 0
-194 -196 0
-195 -196 0
180 196 197 0
-180 -197 0
-196 -197 0
168 197 198 0
-168 -198 0
-197 -198 0
-180 -196 199 0
180 -199 0
196 -199 0
198 199 200 0
-198 -200 0
-199 -200 0
200 -195 201 0
-200 -201 0
195 -201 0
184 -2 202 0
-184 -202 0
2 -202 0
-202 -182 203 0
202 -203 0
182 -203 0
-203 204 205 0
203 -205 0
-204 -205 0
203 -204 206 0
-203 -206 0
204 -206 0
205 206 207 0
-205 -207 0
-206 -207 0
192 189 208 0
-192 -208 0
-189 -208 0
-207 -208 209 0
207 -209 0
208 -209 0
207 208 210 0
-207 -210 0
-208 -210 0
209 210 211 0
-209 -211 0
-210 -211 0
-212 -204 213 0
212 -213 0
204 -213 0
212 204 214 0
-212 -214 0
-204 -214 0
213 214 215 0
-213 -215 0
-214 -215 0
-215 172 216 0
215 -216 0
-172 -216 0
215 -172 217 0
-215 -217 0
172 -217 0
216 217 218 0
-216 -218 0
-217 -218 0
179 176 219 0
-179 -219 0
-176 -219 0
218 219 220 0
-218 -220 0
-219 -220 0
-218 -219 221 0
218 -221 0
219 -221 0
220 221 222 0
-220 -222 0
-221 -222 0
-211 -222 223 0
211 -223 0
222 -223 0
-201 -223 224 0
201 -224 0
223 -224 0
201 223 225 0
-201 -225 0
-223 -225 0
211 222 226 0
-211 -226 0
-222 -226 0
-200 195 227 0
200 -227 0
-195 -227 0
226 227 228 0
-226 -228 0
-227 -228 0
-225 228 229 0
225 -229 0
-228 -229 0
224 229 230 0
-224 -230 0
-229 -230 0
-230 0
